744.69 0
0 30 48 47 21 61 28 74 2 68 0
0 11 66 65 38 10 31 72 58 0
0 67 8 46 34 4 75 0
0 62 22 64 42 41 43 1 73 33 6 0
0 51 16 63 23 56 49 24 3 44 17 0
0 40 32 50 18 55 25 9 39 12 0
0 45 29 5 36 69 71 60 70 20 37 15 57 52 0
0 27 13 54 19 59 14 53 35 7 26 0
